(set-logic QF_LIA)
(set-info :ran/ran2.smt2)
(set-info :smt-lib-version 2.0)
(declare-fun x1 () Int)
(declare-fun x2 () Int)
(declare-fun x3 () Int)
(declare-fun x4 () Int)
(assert (<= (+ (* (- 2) x1) (* 9 x2) (* (- 6) x3) (* (- 9) x4) ) (- 45)))
(assert (<= (+ (* 0 x1) (* 1 x2) (* (- 1) x3) (* 10 x4) ) 30))
(assert (<= (+ (* (- 6) x1) (* 5 x2) (* 0 x3) (* (- 3) x4) ) 47))
(assert (<= (+ (* (- 4) x1) (* 8 x2) (* (- 8) x3) (* 6 x4) ) (- 60)))
(assert (<= (+ (* 9 x1) (* (- 7) x2) (* (- 5) x3) (* (- 10) x4) ) 51))
(assert (<= (+ (* 4 x1) (* (- 9) x2) (* (- 8) x3) (* (- 8) x4) ) 77))
(assert (<= (+ (* (- 10) x1) (* 0 x2) (* (- 7) x3) (* (- 6) x4) ) 62))
(assert (<= (+ (* (- 9) x1) (* 2 x2) (* 9 x3) (* (- 2) x4) ) (- 46)))
(assert (<= (+ (* 1 x1) (* 0 x2) (* 0 x3) (* 0 x4) ) 79))
(assert (<= (+ (* (- 1) x1) (* 0 x2) (* 0 x3) (* 0 x4) ) 79))
(assert (<= (+ (* 0 x1) (* 1 x2) (* 0 x3) (* 0 x4) ) 79))
(assert (<= (+ (* 0 x1) (* (- 1) x2) (* 0 x3) (* 0 x4) ) 79))
(assert (<= (+ (* 0 x1) (* 0 x2) (* 1 x3) (* 0 x4) ) 79))
(assert (<= (+ (* 0 x1) (* 0 x2) (* (- 1) x3) (* 0 x4) ) 79))
(assert (<= (+ (* 0 x1) (* 0 x2) (* 0 x3) (* 1 x4) ) 79))
(assert (<= (+ (* 0 x1) (* 0 x2) (* 0 x3) (* (- 1) x4) ) 79))
